solution status: optimal solution found
objective value:                                    0
one.pinholes[1].hole_out_c_y                       12 	(obj:0)
one.pinholes[1].hole_out_c_z                       19 	(obj:0)
$_18__9_y                                          15 	(obj:0)
$_18__9_z                                          15 	(obj:0)
one.pinholes[0].hole_out_c_y                       12 	(obj:0)
one.pinholes[0].hole_out_c_z                       24 	(obj:0)
one.thingy.devices[3].thingy.vs3_y                    4 	(obj:0)
one.thingy.devices[3].thingy.vs3_z                   11 	(obj:0)
one.thingy.devices[0].thingy.vs3_y                   11 	(obj:0)
one.thingy.devices[0].thingy.vs3_z                   23 	(obj:0)
$_21__9_y                                           3 	(obj:0)
$_21__9_z                                          12 	(obj:0)
$_20__9_y                                           8 	(obj:0)
$_20__9_z                                          13 	(obj:0)
one.pinholes[3].hole_out_c_y                        4 	(obj:0)
one.pinholes[3].hole_out_c_z                       13 	(obj:0)
one.thingy.devices[2].thingy.vs3_y                    8 	(obj:0)
one.thingy.devices[2].thingy.vs3_z                   15 	(obj:0)
one.ctrl_a[11].flush_y                              5 	(obj:0)
one.ctrl_a[11].flush_z                             11 	(obj:0)
one.ctrl_a[10].flush_y                              3 	(obj:0)
one.ctrl_a[10].flush_z                             11 	(obj:0)
one.pinholes[2].hole_out_c_y                        8 	(obj:0)
one.pinholes[2].hole_out_c_z                       16 	(obj:0)
one.ctrl_a[10].hole_y                              11 	(obj:0)
one.ctrl_a[10].hole_z                              24 	(obj:0)
one.thingy.devices[1].thingy.vs3_y                   11 	(obj:0)
one.thingy.devices[1].thingy.vs3_z                   19 	(obj:0)
$_19__9_y                                          12 	(obj:0)
$_19__9_z                                          16 	(obj:0)
one.ctrl_a[11].hole_y                              11 	(obj:0)
one.ctrl_a[11].hole_z                              25 	(obj:0)
